1 100
0 40.0 50.0 0.0 0.0 0 240
2 25.0 85.0 10.0 20.0 125 191
3 22.0 75.0 10.0 30.0 32 97
4 22.0 85.0 10.0 10.0 101 146
5 20.0 80.0 10.0 40.0 71 193
6 20.0 85.0 10.0 20.0 40 113
7 18.0 75.0 10.0 20.0 55 164
8 15.0 75.0 10.0 20.0 69 118
9 15.0 80.0 10.0 10.0 56 155
10 10.0 35.0 10.0 20.0 51 160
11 10.0 40.0 10.0 30.0 90 177
12 8.0 40.0 10.0 40.0 33 152
13 8.0 45.0 10.0 20.0 49 108
14 5.0 35.0 10.0 10.0 62 191
15 5.0 45.0 10.0 10.0 35 117
16 2.0 40.0 10.0 20.0 39 161
17 0.0 40.0 10.0 20.0 59 114
18 0.0 45.0 10.0 20.0 60 189
19 44.0 5.0 10.0 20.0 79 124
20 42.0 10.0 10.0 40.0 58 115
21 42.0 15.0 10.0 10.0 111 162
22 40.0 5.0 10.0 10.0 52 111
23 40.0 15.0 10.0 40.0 55 158
24 38.0 5.0 10.0 30.0 45 164
25 38.0 15.0 10.0 10.0 128 194
26 35.0 5.0 10.0 20.0 54 184
27 95.0 30.0 10.0 30.0 105 154
28 95.0 35.0 10.0 20.0 57 172
29 92.0 30.0 10.0 10.0 55 120
30 90.0 35.0 10.0 10.0 52 112
31 88.0 30.0 10.0 10.0 52 159
32 88.0 35.0 10.0 20.0 50 110
33 87.0 30.0 10.0 10.0 116 175
34 85.0 25.0 10.0 10.0 51 178
35 85.0 35.0 10.0 30.0 100 151
36 67.0 85.0 10.0 20.0 61 185
37 65.0 85.0 10.0 40.0 43 186
38 65.0 82.0 10.0 10.0 113 164
39 62.0 80.0 10.0 30.0 37 148
40 60.0 80.0 10.0 10.0 36 191
41 60.0 85.0 10.0 30.0 50 149
42 58.0 75.0 10.0 20.0 48 165
43 55.0 80.0 10.0 10.0 33 166
44 55.0 85.0 10.0 20.0 117 168
45 55.0 82.0 10.0 10.0 35 148
46 20.0 82.0 10.0 10.0 37 177
47 18.0 80.0 10.0 10.0 98 157
48 2.0 45.0 10.0 10.0 38 109
49 42.0 5.0 10.0 10.0 120 184
50 42.0 12.0 10.0 10.0 79 158
51 72.0 35.0 10.0 30.0 104 157
52 55.0 20.0 10.0 19.0 69 126
53 25.0 30.0 10.0 3.0 36 97
54 20.0 50.0 10.0 5.0 57 154
55 55.0 60.0 10.0 16.0 127 180
56 30.0 60.0 10.0 16.0 95 214
57 50.0 35.0 10.0 19.0 88 201
58 30.0 25.0 10.0 23.0 82 139
59 15.0 10.0 10.0 20.0 56 182
60 10.0 20.0 10.0 19.0 42 125
61 15.0 60.0 10.0 17.0 137 202
62 45.0 65.0 10.0 9.0 55 106
63 65.0 35.0 10.0 3.0 29 158
64 65.0 20.0 10.0 6.0 39 108
65 45.0 30.0 10.0 17.0 20 139
66 35.0 40.0 10.0 16.0 11 140
67 41.0 37.0 10.0 16.0 92 203
68 64.0 42.0 10.0 9.0 28 141
69 40.0 60.0 10.0 21.0 100 217
70 31.0 52.0 10.0 27.0 9 134
71 35.0 69.0 10.0 23.0 60 210
72 65.0 55.0 10.0 14.0 52 107
73 63.0 65.0 10.0 8.0 27 101
74 2.0 60.0 10.0 5.0 65 118
75 20.0 20.0 10.0 8.0 72 193
76 5.0 5.0 10.0 16.0 60 117
77 60.0 12.0 10.0 31.0 42 143
78 23.0 3.0 10.0 7.0 52 180
79 8.0 56.0 10.0 27.0 46 163
80 6.0 68.0 10.0 30.0 54 153
81 47.0 47.0 10.0 13.0 97 222
82 49.0 58.0 10.0 10.0 80 121
83 27.0 43.0 10.0 9.0 26 87
84 37.0 31.0 10.0 14.0 19 87
85 57.0 29.0 10.0 18.0 62 159
86 63.0 23.0 10.0 2.0 76 127
87 21.0 24.0 10.0 28.0 77 126
88 12.0 24.0 10.0 13.0 68 141
89 24.0 58.0 10.0 19.0 24 139
90 67.0 5.0 10.0 25.0 105 177
91 37.0 47.0 10.0 6.0 74 127
92 49.0 42.0 10.0 13.0 151 212
93 53.0 43.0 10.0 14.0 14 155
94 61.0 52.0 10.0 3.0 69 208
95 57.0 48.0 10.0 23.0 86 133
96 56.0 37.0 10.0 6.0 20 84
97 55.0 54.0 10.0 26.0 121 172
98 4.0 18.0 10.0 35.0 112 157
99 26.0 52.0 10.0 9.0 30 91
100 26.0 35.0 10.0 15.0 37 146
101 31.0 67.0 10.0 3.0 66 210